Au 
 1.0000000000000000
    80.0000000000000000    0.0000000000000000    0.0000000000000000
     0.0000000000000000   80.0000000000000000    0.0000000000000000
     0.0000000000000000    0.0000000000000000   80.0000000000000000
  Au
  55
Direct
  0.4951788750000000  0.4758015625000001  0.4542104375000000
  0.4728838750000000  0.4986085625000000  0.4390478125000000
  0.5286251250000000  0.4832675625000000  0.4557031875000000
  0.4634308750000000  0.4727425625000000  0.4947264374999999
  0.5216838750000000  0.4597063125000000  0.5065726875000001
  0.5048701250000001  0.4746259375000000  0.5330539375000000
  0.4983488750000000  0.4786870625000000  0.4898239375000000
  0.4830948750000000  0.4513771875000000  0.4755966875000001
  0.5053438750000000  0.4326889375000000  0.4918739375000000
  0.5543238750000000  0.4534069375000001  0.5106064375000000
  0.5177863750000000  0.4565236875000000  0.4724479375000000
  0.5452551250000000  0.4749123125000000  0.4849489375000000
  0.4404886250000000  0.4937548125000000  0.4453315625000000
  0.4425056250000000  0.4955860625000000  0.4786858125000000
  0.4876190000000000  0.4539749375000001  0.5107026875000000
  0.5374701250000000  0.4644424375000000  0.5377351875000000
  0.4611713750000000  0.4719036875000001  0.4600053125000000
  0.5445626250000000  0.4963798125000000  0.5482589375000000
  0.5546838750000000  0.4856338125000000  0.5170451874999999
  0.4710672500000000  0.4783100625000000  0.5280876875000000
  0.5186613750000000  0.4791683125000000  0.5632789375000000
  0.4870670000000000  0.4919075625000000  0.5561314375000000
  0.5055751250000000  0.5043910625000001  0.4385273125000000
  0.5187438750000000  0.5362960625000001  0.4432673125000000
  0.5388888749999999  0.5093473125000000  0.4367210625000000
  0.4841400000000000  0.5319573125000000  0.4406056875000000
  0.4916038750000000  0.5014298125000000  0.5139139375000000
  0.5234576250000000  0.5012123125000001  0.4846564375000000
  0.5243663749999999  0.5025073125000000  0.5218539375000000
  0.4759023750000000  0.4989723125000000  0.4732828125000000
  0.5419513750000000  0.5244460625000000  0.4664825625000000
  0.4754472500000000  0.5249823125000000  0.4952526875000000
  0.5108551250000000  0.5274923124999999  0.5013751875000001
  0.4857342500000000  0.5228085625000001  0.5397126875000000
  0.5000463749999999  0.5219635625000001  0.4685869375000000
  0.4546731250000000  0.5210210625000000  0.4582946875000000
  0.4422646250000000  0.5277923125000000  0.4912176875000000
  0.4529825000000000  0.5014335625000000  0.5105576875000001
  0.4605172500000000  0.5561773125000000  0.4982451875000000
  0.4923863750000000  0.5673110625000000  0.4870501875000001
  0.5434588750000000  0.5391873125000000  0.4960939375000000
  0.5194338750000000  0.5500885625000000  0.4745805625000000
  0.5428651249999999  0.5299785625000000  0.5528664375000000
  0.4983726250000000  0.5622223125000000  0.4512925625000000
  0.5191688750000000  0.5611798125000000  0.5076426875000000
  0.5455988749999999  0.5517348125000000  0.5270064375000001
  0.4736738750000000  0.5466423125000001  0.4686119375000001
  0.4572498750000000  0.5330210625000000  0.5233339375000000
  0.4879891250000000  0.5492948125000000  0.5168526874999999
  0.4577431250000000  0.5052835625000001  0.5442039375000001
  0.5152738750000000  0.5384873125000000  0.5341964375000000
  0.5145163750000000  0.5115635625000000  0.5545939375000000
  0.5595113750000000  0.4954785625000001  0.4600318125000000
  0.5572738750000000  0.5076160625000000  0.4911976875000000
  0.5539076250000000  0.5185110625000000  0.5228151875000000
