Au                                      
   1.00000000000000     
    20.0000000000000000    0.0000000000000000    0.0000000000000000
     0.0000000000000000   20.0000000000000000    0.0000000000000000
     0.0000000000000000    0.0000000000000000   20.0000000000000000
   Au
    20
Direct
  0.6147009114090309  0.4697591233132528  0.6213317128734630
  0.6191737723028794  0.5601967219621855  0.5030947822109582
  0.5495988626001704  0.4385000734302693  0.5016762425898946
  0.5327081404411871  0.6058382494399766  0.6244116699982243
  0.4750185916774967  0.5627791678905893  0.5027641410791119
  0.4734422380649690  0.4732153180211895  0.6180694637195359
  0.6821590847972701  0.4365075509568399  0.5015003800755622
  0.4139364880144001  0.4401063024237359  0.5013950761219945
  0.5362494077242772  0.5133545051811765  0.7284460316446797
  0.8179901978973447  0.4371669721372413  0.5005676517231805
  0.6231633124622604  0.7133974692194371  0.6244500234695423
  0.6985394786697512  0.6762388401411670  0.5031893828652088
  0.6223831751455364  0.7881845341489040  0.5125649860625217
  0.6213977733958416  0.6300985268549510  0.7312812198601506
  0.7076465497711197  0.6030358835798921  0.6228947500720849
  0.6165239315794366  0.5354398678370913  0.8324891957685736
  0.6960576833567202  0.5104383778640340  0.7254445764286572
  0.7575085467813096  0.4700528736090348  0.6149241719616612
  0.7601488263199272  0.5596210722665660  0.5016129695276277
  0.5460187723209131  0.6761643736120462  0.5042982570641001
 
  0.00000000E+00  0.00000000E+00  0.00000000E+00
  0.00000000E+00  0.00000000E+00  0.00000000E+00
  0.00000000E+00  0.00000000E+00  0.00000000E+00
  0.00000000E+00  0.00000000E+00  0.00000000E+00
  0.00000000E+00  0.00000000E+00  0.00000000E+00
  0.00000000E+00  0.00000000E+00  0.00000000E+00
  0.00000000E+00  0.00000000E+00  0.00000000E+00
  0.00000000E+00  0.00000000E+00  0.00000000E+00
  0.00000000E+00  0.00000000E+00  0.00000000E+00
  0.00000000E+00  0.00000000E+00  0.00000000E+00
  0.00000000E+00  0.00000000E+00  0.00000000E+00
  0.00000000E+00  0.00000000E+00  0.00000000E+00
  0.00000000E+00  0.00000000E+00  0.00000000E+00
  0.00000000E+00  0.00000000E+00  0.00000000E+00
  0.00000000E+00  0.00000000E+00  0.00000000E+00
  0.00000000E+00  0.00000000E+00  0.00000000E+00
  0.00000000E+00  0.00000000E+00  0.00000000E+00
  0.00000000E+00  0.00000000E+00  0.00000000E+00
  0.00000000E+00  0.00000000E+00  0.00000000E+00
  0.00000000E+00  0.00000000E+00  0.00000000E+00
