Au 
 1.0000000000000000
    20.0000000000000000    0.0000000000000000    0.0000000000000000
     0.0000000000000000   20.0000000000000000    0.0000000000000000
     0.0000000000000000    0.0000000000000000   20.0000000000000000
  20
Cartesian
 12.2940182281806720  9.3951824662650232 12.4266342574692334
 12.3834754460576377 11.2039344392437314 10.0618956442191436
 10.9919772520033447  8.7700014686053240 10.0335248517978943
 10.6541628088236973 12.1167649887994848 12.4882333999645443
  9.5003718335499645 11.2555833578118314 10.0552828215823098
  9.4688447612994313  9.4643063604238158 12.3613892743906622
 13.6431816959453958  8.7301510191368159 10.0300076015112065
  8.2787297602880230  8.8021260484747259 10.0279015224399490
 10.7249881544855938 10.2670901036235236 14.5689206328935388
 16.3598039579468733  8.7433394427448956 10.0113530344636459
 12.4632662492451818 14.2679493843887286 12.4890004693908363
 13.9707895733950345 13.5247768028232862 10.0637876573041165
 12.4476635029106752 15.7636906829780781 10.2512997212503958
 12.4279554679167816 12.6019705370990334 14.6256243972029800
 14.1529309954224622 12.0607176715977964 12.4578950014417167
 12.3304786315887789 10.7087973567417922 16.6497839153714402
 13.9211536671343588 10.2087675572806393 14.5088915285731357
 15.1501709356261411  9.4010574721806321 12.2984834392331681
 15.2029765263985048 11.1924214453313589 10.0322593905525039
 10.9203754464182357 13.5232874722409022 10.0859651412819762
